sat
(:arith-branch          1
 :arith-dio-calls       1
 :arith-gcd-calls       2
 :arith-lower           22
 :arith-make-feasible   2
 :arith-max-columns     64
 :arith-max-rows        30
 :arith-patches         2
 :arith-patches-success 1
 :arith-upper           9
 :decisions             1
 :final-checks          2
 :max-memory            19.42
 :memory                18.66
 :mk-bool-var           31
 :num-allocs            595712
 :num-checks            1
 :rlimit-count          5908
 :time                  0.04
 :total-time            0.11)
